0 0 2 0
2 0 2 1
2 1 3 6
0 1 0 1
1 0 1 0
3 0 1 8
3 1 0 13
5 0 1 13
1 1 2 8
4 0 2 13
4 1 1 22
2 2 5 10
2 3 0 18
5 1 3 16
3 2 2 22
3 3 3 27
0 2 1 25
0 3 3 31
1 2 4 13
5 2 5 19
4 2 4 25
1 3 5 28
3 4 4 30
5 3 0 28
1 4 0 38
2 4 1 31
0 4 5 38
2 5 4 38
4 3 5 41
4 4 0 48
5 4 4 45
0 5 4 49
1 5 3 48
5 5 2 49
3 5 5 45
4 5 3 52
